p wcnf 112 168 169 
1 -37 96 0 
1 55 -37 0 
1 -27 109 0 
1 79 -21 0 
1 94 36 0 
1 103 -112 0 
1 -38 103 0 
1 -2 -96 0 
1 -97 -16 0 
1 71 59 0 
1 53 58 0 
1 91 -13 0 
1 20 104 0 
1 -97 112 0 
1 -65 -45 0 
1 -74 -101 0 
1 -19 -90 0 
1 50 107 0 
1 32 -47 0 
1 -25 112 0 
1 -67 3 0 
1 -74 33 0 
1 -76 4 0 
1 43 2 0 
1 -57 33 0 
1 81 -3 0 
1 -88 -25 0 
1 68 -60 0 
1 69 55 0 
1 -60 -56 0 
1 -45 80 0 
1 -95 29 0 
1 -59 -35 0 
1 -104 4 0 
1 111 -65 0 
1 42 6 0 
1 71 8 0 
1 -1 -73 0 
1 -86 -58 0 
1 81 24 0 
1 -36 78 0 
1 -25 -8 0 
1 85 77 0 
1 -106 75 0 
1 -40 57 0 
1 -63 -55 0 
1 -14 12 0 
1 65 -112 0 
1 70 -72 0 
1 -52 -111 0 
1 -61 -30 0 
1 69 -57 0 
1 -8 -37 0 
1 64 46 0 
1 -13 40 0 
1 75 -71 0 
1 -68 -25 0 
1 80 -31 0 
1 106 68 0 
1 -55 -92 0 
1 -108 -4 0 
1 -3 30 0 
1 -73 27 0 
1 95 27 0 
1 -89 33 0 
1 37 86 0 
1 -56 -79 0 
1 -22 37 0 
1 -26 -57 0 
1 52 -62 0 
1 -80 -58 0 
1 -36 102 0 
1 26 83 0 
1 36 53 0 
1 -87 49 0 
1 -78 -104 0 
1 60 -71 0 
1 19 -35 0 
1 -106 -48 0 
1 52 -8 0 
1 8 59 0 
1 -86 -20 0 
1 -111 -23 0 
1 -18 83 0 
1 -18 25 0 
1 -34 7 0 
1 20 -57 0 
1 86 -20 0 
1 103 -3 0 
1 -111 -42 0 
1 -63 -112 0 
1 -78 -60 0 
1 -17 -23 0 
1 67 -92 0 
1 -89 -77 0 
1 107 24 0 
1 -112 21 0 
1 21 -24 0 
1 -75 102 0 
1 -87 -46 0 
1 -88 94 0 
1 -108 80 0 
1 -82 -49 0 
1 -58 -88 0 
1 -61 -23 0 
1 -23 111 0 
1 38 3 0 
1 73 4 0 
1 -80 -108 0 
1 72 -59 0 
1 -34 -15 0 
1 -53 20 0 
1 22 -53 0 
1 60 19 0 
1 -18 -38 0 
1 39 40 0 
1 5 -14 0 
1 -6 39 0 
1 -37 -100 0 
1 61 -98 0 
1 -102 47 0 
1 53 -90 0 
1 -48 10 0 
1 72 14 0 
1 107 65 0 
1 27 -23 0 
1 -53 -42 0 
1 88 -73 0 
1 5 76 0 
1 112 78 0 
1 45 -29 0 
1 -34 -49 0 
1 104 48 0 
1 -30 -84 0 
1 2 102 0 
1 -9 -19 0 
1 5 73 0 
1 77 -2 0 
1 86 -18 0 
1 -86 -13 0 
1 43 -21 0 
1 -87 79 0 
1 25 71 0 
1 94 12 0 
1 41 -59 0 
1 -67 87 0 
1 36 -97 0 
1 102 -16 0 
1 -43 -39 0 
1 96 -23 0 
1 -40 -23 0 
1 52 -6 0 
1 -87 -67 0 
1 -22 -16 0 
1 -112 -17 0 
1 69 21 0 
1 -9 -58 0 
1 49 64 0 
1 -100 -76 0 
1 -83 41 0 
1 112 -75 0 
1 -11 95 0 
1 97 56 0 
1 -105 -56 0 
1 -42 -98 0 
1 -51 -56 0 
1 -50 -68 0 
1 1 -52 0 
